\ENCODING=ISO-8859-1
\Problem name: IloCplex

Maximize
 obj: - 5 x34 + 1.5 x35 + 5.5 x36 - 8 x37 - 3 x38 - 2 x39 - 5 x41 + 4 x43
      - 0.5 x44 + 7.5 x45 + 5.5 x46 - x47 - 8.5 x48 + 1.5 x49 + 4 x50 + 0.5 x52
      + 7.5 x53 - 3 x54 - 3.5 x55 + 6.5 x56 + 5.5 x57 - 0.5 x58 + 0.5 x59
      + 3 x61 - 3 x62 + 2.5 x63 + 4.5 x64 - 8 x65 + 7.5 x66 + 7.5 x67 + 3 x68
      + 2 x70 + 4.5 x71 - 2.5 x72 - 3 x73 + 5.5 x74 - 3 x75 - 3 x76 + 2 x77
      + 1.5 x79 - 5 x80 - 2 x81 - x82 - 3.5 x83 + 2.5 x84 + 4.5 x85 + 1.5 x86
      - 8.5 x90 + 6.5 x91 + 4.5 x92 - 2.5 x93 - 5 x94 - 5 x98 + 1.5 x99
      + 5.5 x100 - 8 x101 - 3 x102 - 2 x103 - 5 x105 + 4 x107 - 0.5 x108
      + 7.5 x109 + 5.5 x110 - x111 - 8.5 x112 + 1.5 x113 + 4 x114 + 0.5 x116
      + 7.5 x117 - 3 x118 - 3.5 x119 + 6.5 x120 + 5.5 x121 - 0.5 x122
      + 0.5 x123 + 3 x125 - 3 x126 + 2.5 x127 + 4.5 x128 - 8 x129 + 7.5 x130
      + 7.5 x131 + 3 x132 + 2 x134 + 4.5 x135 - 2.5 x136 - 3 x137 + 5.5 x138
      - 3 x139 - 3 x140 + 2 x141 + 1.5 x143 - 5 x144 - 2 x145 - x146 - 3.5 x147
      + 2.5 x148 + 4.5 x149 + 1.5 x150 - 8.5 x154 + 6.5 x155 + 4.5 x156
      - 2.5 x157 - 5 x158 - 5 x162 + 1.5 x163 + 5.5 x164 - 8 x165 - 3 x166
      - 2 x167 - 5 x169 + 4 x171 - 0.5 x172 + 7.5 x173 + 5.5 x174 - x175
      - 8.5 x176 + 1.5 x177 + 4 x178 + 0.5 x180 + 7.5 x181 - 3 x182 - 3.5 x183
      + 6.5 x184 + 5.5 x185 - 0.5 x186 + 0.5 x187 + 3 x189 - 3 x190 + 2.5 x191
      + 4.5 x192 - 8 x193 + 7.5 x194 + 7.5 x195 + 3 x196 + 2 x198 + 4.5 x199
      - 2.5 x200 - 3 x201 + 5.5 x202 - 3 x203 - 3 x204 + 2 x205 + 1.5 x207
      - 5 x208 - 2 x209 - x210 - 3.5 x211 + 2.5 x212 + 4.5 x213 + 1.5 x214
      - 8.5 x218 + 6.5 x219 + 4.5 x220 - 2.5 x221 - 5 x222 - 5 x226 + 1.5 x227
      + 5.5 x228 - 8 x229 - 3 x230 - 2 x231 - 5 x233 + 4 x235 - 0.5 x236
      + 7.5 x237 + 5.5 x238 - x239 - 8.5 x240 + 1.5 x241 + 4 x242 + 0.5 x244
      + 7.5 x245 - 3 x246 - 3.5 x247 + 6.5 x248 + 5.5 x249 - 0.5 x250
      + 0.5 x251 + 3 x253 - 3 x254 + 2.5 x255 + 4.5 x256 - 8 x257 + 7.5 x258
      + 7.5 x259 + 3 x260 + 2 x262 + 4.5 x263 - 2.5 x264 - 3 x265 + 5.5 x266
      - 3 x267 - 3 x268 + 2 x269 + 1.5 x271 - 5 x272 - 2 x273 - x274 - 3.5 x275
      + 2.5 x276 + 4.5 x277 + 1.5 x278 - 8.5 x282 + 6.5 x283 + 4.5 x284
      - 2.5 x285 - 5 x286
Subject To
 c1:    x1 + x2 + x3 + x4 + x5 + x6 + x7 + x8 - 8 x289 <= 0
 c2:    x1 + x2 + x3 + x4 + x5 + x6 + x7 + x8 - 2 x289 >= 0
 c3:    x9 + x10 + x11 + x12 + x13 + x14 + x15 + x16 - 8 x290 <= 0
 c4:    x9 + x10 + x11 + x12 + x13 + x14 + x15 + x16 - 2 x290 >= 0
 c5:    x17 + x18 + x19 + x20 + x21 + x22 + x23 + x24 - 8 x291 <= 0
 c6:    x17 + x18 + x19 + x20 + x21 + x22 + x23 + x24 - 2 x291 >= 0
 c7:    x25 + x26 + x27 + x28 + x29 + x30 + x31 + x32 - 8 x292 <= 0
 c8:    x25 + x26 + x27 + x28 + x29 + x30 + x31 + x32 - 2 x292 >= 0
 c9:    x1 + x9 + x17 + x25  = 1
 c10:   x2 + x10 + x18 + x26  = 1
 c11:   x3 + x11 + x19 + x27  = 1
 c12:   x4 + x12 + x20 + x28  = 1
 c13:   x5 + x13 + x21 + x29  = 1
 c14:   x6 + x14 + x22 + x30  = 1
 c15:   x7 + x15 + x23 + x31  = 1
 c16:   x8 + x16 + x24 + x32  = 1
 c17:   - x1 + x33 <= 0
 c18:   - x1 + x33 <= 0
 c19:   - x33 + x289 >= 0
 c20:   - 2 x1 + x33 >= -1
 c21:   - x2 + x34 <= 0
 c22:   - x1 + x34 <= 0
 c23:   - x34 + x289 >= 0
 c24:   - x1 - x2 + x34 >= -1
 c25:   - x3 + x35 <= 0
 c26:   - x1 + x35 <= 0
 c27:   - x35 + x289 >= 0
 c28:   - x1 - x3 + x35 >= -1
 c29:   - x4 + x36 <= 0
 c30:   - x1 + x36 <= 0
 c31:   - x36 + x289 >= 0
 c32:   - x1 - x4 + x36 >= -1
 c33:   - x5 + x37 <= 0
 c34:   - x1 + x37 <= 0
 c35:   - x37 + x289 >= 0
 c36:   - x1 - x5 + x37 >= -1
 c37:   - x6 + x38 <= 0
 c38:   - x1 + x38 <= 0
 c39:   - x38 + x289 >= 0
 c40:   - x1 - x6 + x38 >= -1
 c41:   - x7 + x39 <= 0
 c42:   - x1 + x39 <= 0
 c43:   - x39 + x289 >= 0
 c44:   - x1 - x7 + x39 >= -1
 c45:   - x8 + x40 <= 0
 c46:   - x1 + x40 <= 0
 c47:   - x40 + x289 >= 0
 c48:   - x1 - x8 + x40 >= -1
 c49:   - x1 + x41 <= 0
 c50:   - x2 + x41 <= 0
 c51:   - x41 + x289 >= 0
 c52:   - x1 - x2 + x41 >= -1
 c53:   - x2 + x42 <= 0
 c54:   - x2 + x42 <= 0
 c55:   - x42 + x289 >= 0
 c56:   - 2 x2 + x42 >= -1
 c57:   - x3 + x43 <= 0
 c58:   - x2 + x43 <= 0
 c59:   - x43 + x289 >= 0
 c60:   - x2 - x3 + x43 >= -1
 c61:   - x4 + x44 <= 0
 c62:   - x2 + x44 <= 0
 c63:   - x44 + x289 >= 0
 c64:   - x2 - x4 + x44 >= -1
 c65:   - x5 + x45 <= 0
 c66:   - x2 + x45 <= 0
 c67:   - x45 + x289 >= 0
 c68:   - x2 - x5 + x45 >= -1
 c69:   - x6 + x46 <= 0
 c70:   - x2 + x46 <= 0
 c71:   - x46 + x289 >= 0
 c72:   - x2 - x6 + x46 >= -1
 c73:   - x7 + x47 <= 0
 c74:   - x2 + x47 <= 0
 c75:   - x47 + x289 >= 0
 c76:   - x2 - x7 + x47 >= -1
 c77:   - x8 + x48 <= 0
 c78:   - x2 + x48 <= 0
 c79:   - x48 + x289 >= 0
 c80:   - x2 - x8 + x48 >= -1
 c81:   - x1 + x49 <= 0
 c82:   - x3 + x49 <= 0
 c83:   - x49 + x289 >= 0
 c84:   - x1 - x3 + x49 >= -1
 c85:   - x2 + x50 <= 0
 c86:   - x3 + x50 <= 0
 c87:   - x50 + x289 >= 0
 c88:   - x2 - x3 + x50 >= -1
 c89:   - x3 + x51 <= 0
 c90:   - x3 + x51 <= 0
 c91:   - x51 + x289 >= 0
 c92:   - 2 x3 + x51 >= -1
 c93:   - x4 + x52 <= 0
 c94:   - x3 + x52 <= 0
 c95:   - x52 + x289 >= 0
 c96:   - x3 - x4 + x52 >= -1
 c97:   - x5 + x53 <= 0
 c98:   - x3 + x53 <= 0
 c99:   - x53 + x289 >= 0
 c100:  - x3 - x5 + x53 >= -1
 c101:  - x6 + x54 <= 0
 c102:  - x3 + x54 <= 0
 c103:  - x54 + x289 >= 0
 c104:  - x3 - x6 + x54 >= -1
 c105:  - x7 + x55 <= 0
 c106:  - x3 + x55 <= 0
 c107:  - x55 + x289 >= 0
 c108:  - x3 - x7 + x55 >= -1
 c109:  - x8 + x56 <= 0
 c110:  - x3 + x56 <= 0
 c111:  - x56 + x289 >= 0
 c112:  - x3 - x8 + x56 >= -1
 c113:  - x1 + x57 <= 0
 c114:  - x4 + x57 <= 0
 c115:  - x57 + x289 >= 0
 c116:  - x1 - x4 + x57 >= -1
 c117:  - x2 + x58 <= 0
 c118:  - x4 + x58 <= 0
 c119:  - x58 + x289 >= 0
 c120:  - x2 - x4 + x58 >= -1
 c121:  - x3 + x59 <= 0
 c122:  - x4 + x59 <= 0
 c123:  - x59 + x289 >= 0
 c124:  - x3 - x4 + x59 >= -1
 c125:  - x4 + x60 <= 0
 c126:  - x4 + x60 <= 0
 c127:  - x60 + x289 >= 0
 c128:  - 2 x4 + x60 >= -1
 c129:  - x5 + x61 <= 0
 c130:  - x4 + x61 <= 0
 c131:  - x61 + x289 >= 0
 c132:  - x4 - x5 + x61 >= -1
 c133:  - x6 + x62 <= 0
 c134:  - x4 + x62 <= 0
 c135:  - x62 + x289 >= 0
 c136:  - x4 - x6 + x62 >= -1
 c137:  - x7 + x63 <= 0
 c138:  - x4 + x63 <= 0
 c139:  - x63 + x289 >= 0
 c140:  - x4 - x7 + x63 >= -1
 c141:  - x8 + x64 <= 0
 c142:  - x4 + x64 <= 0
 c143:  - x64 + x289 >= 0
 c144:  - x4 - x8 + x64 >= -1
 c145:  - x1 + x65 <= 0
 c146:  - x5 + x65 <= 0
 c147:  - x65 + x289 >= 0
 c148:  - x1 - x5 + x65 >= -1
 c149:  - x2 + x66 <= 0
 c150:  - x5 + x66 <= 0
 c151:  - x66 + x289 >= 0
 c152:  - x2 - x5 + x66 >= -1
 c153:  - x3 + x67 <= 0
 c154:  - x5 + x67 <= 0
 c155:  - x67 + x289 >= 0
 c156:  - x3 - x5 + x67 >= -1
 c157:  - x4 + x68 <= 0
 c158:  - x5 + x68 <= 0
 c159:  - x68 + x289 >= 0
 c160:  - x4 - x5 + x68 >= -1
 c161:  - x5 + x69 <= 0
 c162:  - x5 + x69 <= 0
 c163:  - x69 + x289 >= 0
 c164:  - 2 x5 + x69 >= -1
 c165:  - x6 + x70 <= 0
 c166:  - x5 + x70 <= 0
 c167:  - x70 + x289 >= 0
 c168:  - x5 - x6 + x70 >= -1
 c169:  - x7 + x71 <= 0
 c170:  - x5 + x71 <= 0
 c171:  - x71 + x289 >= 0
 c172:  - x5 - x7 + x71 >= -1
 c173:  - x8 + x72 <= 0
 c174:  - x5 + x72 <= 0
 c175:  - x72 + x289 >= 0
 c176:  - x5 - x8 + x72 >= -1
 c177:  - x1 + x73 <= 0
 c178:  - x6 + x73 <= 0
 c179:  - x73 + x289 >= 0
 c180:  - x1 - x6 + x73 >= -1
 c181:  - x2 + x74 <= 0
 c182:  - x6 + x74 <= 0
 c183:  - x74 + x289 >= 0
 c184:  - x2 - x6 + x74 >= -1
 c185:  - x3 + x75 <= 0
 c186:  - x6 + x75 <= 0
 c187:  - x75 + x289 >= 0
 c188:  - x3 - x6 + x75 >= -1
 c189:  - x4 + x76 <= 0
 c190:  - x6 + x76 <= 0
 c191:  - x76 + x289 >= 0
 c192:  - x4 - x6 + x76 >= -1
 c193:  - x5 + x77 <= 0
 c194:  - x6 + x77 <= 0
 c195:  - x77 + x289 >= 0
 c196:  - x5 - x6 + x77 >= -1
 c197:  - x6 + x78 <= 0
 c198:  - x6 + x78 <= 0
 c199:  - x78 + x289 >= 0
 c200:  - 2 x6 + x78 >= -1
 c201:  - x7 + x79 <= 0
 c202:  - x6 + x79 <= 0
 c203:  - x79 + x289 >= 0
 c204:  - x6 - x7 + x79 >= -1
 c205:  - x8 + x80 <= 0
 c206:  - x6 + x80 <= 0
 c207:  - x80 + x289 >= 0
 c208:  - x6 - x8 + x80 >= -1
 c209:  - x1 + x81 <= 0
 c210:  - x7 + x81 <= 0
 c211:  - x81 + x289 >= 0
 c212:  - x1 - x7 + x81 >= -1
 c213:  - x2 + x82 <= 0
 c214:  - x7 + x82 <= 0
 c215:  - x82 + x289 >= 0
 c216:  - x2 - x7 + x82 >= -1
 c217:  - x3 + x83 <= 0
 c218:  - x7 + x83 <= 0
 c219:  - x83 + x289 >= 0
 c220:  - x3 - x7 + x83 >= -1
 c221:  - x4 + x84 <= 0
 c222:  - x7 + x84 <= 0
 c223:  - x84 + x289 >= 0
 c224:  - x4 - x7 + x84 >= -1
 c225:  - x5 + x85 <= 0
 c226:  - x7 + x85 <= 0
 c227:  - x85 + x289 >= 0
 c228:  - x5 - x7 + x85 >= -1
 c229:  - x6 + x86 <= 0
 c230:  - x7 + x86 <= 0
 c231:  - x86 + x289 >= 0
 c232:  - x6 - x7 + x86 >= -1
 c233:  - x7 + x87 <= 0
 c234:  - x7 + x87 <= 0
 c235:  - x87 + x289 >= 0
 c236:  - 2 x7 + x87 >= -1
 c237:  - x8 + x88 <= 0
 c238:  - x7 + x88 <= 0
 c239:  - x88 + x289 >= 0
 c240:  - x7 - x8 + x88 >= -1
 c241:  - x1 + x89 <= 0
 c242:  - x8 + x89 <= 0
 c243:  - x89 + x289 >= 0
 c244:  - x1 - x8 + x89 >= -1
 c245:  - x2 + x90 <= 0
 c246:  - x8 + x90 <= 0
 c247:  - x90 + x289 >= 0
 c248:  - x2 - x8 + x90 >= -1
 c249:  - x3 + x91 <= 0
 c250:  - x8 + x91 <= 0
 c251:  - x91 + x289 >= 0
 c252:  - x3 - x8 + x91 >= -1
 c253:  - x4 + x92 <= 0
 c254:  - x8 + x92 <= 0
 c255:  - x92 + x289 >= 0
 c256:  - x4 - x8 + x92 >= -1
 c257:  - x5 + x93 <= 0
 c258:  - x8 + x93 <= 0
 c259:  - x93 + x289 >= 0
 c260:  - x5 - x8 + x93 >= -1
 c261:  - x6 + x94 <= 0
 c262:  - x8 + x94 <= 0
 c263:  - x94 + x289 >= 0
 c264:  - x6 - x8 + x94 >= -1
 c265:  - x7 + x95 <= 0
 c266:  - x8 + x95 <= 0
 c267:  - x95 + x289 >= 0
 c268:  - x7 - x8 + x95 >= -1
 c269:  - x8 + x96 <= 0
 c270:  - x8 + x96 <= 0
 c271:  - x96 + x289 >= 0
 c272:  - 2 x8 + x96 >= -1
 c273:  - x9 + x97 <= 0
 c274:  - x9 + x97 <= 0
 c275:  - x97 + x290 >= 0
 c276:  - 2 x9 + x97 >= -1
 c277:  - x10 + x98 <= 0
 c278:  - x9 + x98 <= 0
 c279:  - x98 + x290 >= 0
 c280:  - x9 - x10 + x98 >= -1
 c281:  - x11 + x99 <= 0
 c282:  - x9 + x99 <= 0
 c283:  - x99 + x290 >= 0
 c284:  - x9 - x11 + x99 >= -1
 c285:  - x12 + x100 <= 0
 c286:  - x9 + x100 <= 0
 c287:  - x100 + x290 >= 0
 c288:  - x9 - x12 + x100 >= -1
 c289:  - x13 + x101 <= 0
 c290:  - x9 + x101 <= 0
 c291:  - x101 + x290 >= 0
 c292:  - x9 - x13 + x101 >= -1
 c293:  - x14 + x102 <= 0
 c294:  - x9 + x102 <= 0
 c295:  - x102 + x290 >= 0
 c296:  - x9 - x14 + x102 >= -1
 c297:  - x15 + x103 <= 0
 c298:  - x9 + x103 <= 0
 c299:  - x103 + x290 >= 0
 c300:  - x9 - x15 + x103 >= -1
 c301:  - x16 + x104 <= 0
 c302:  - x9 + x104 <= 0
 c303:  - x104 + x290 >= 0
 c304:  - x9 - x16 + x104 >= -1
 c305:  - x9 + x105 <= 0
 c306:  - x10 + x105 <= 0
 c307:  - x105 + x290 >= 0
 c308:  - x9 - x10 + x105 >= -1
 c309:  - x10 + x106 <= 0
 c310:  - x10 + x106 <= 0
 c311:  - x106 + x290 >= 0
 c312:  - 2 x10 + x106 >= -1
 c313:  - x11 + x107 <= 0
 c314:  - x10 + x107 <= 0
 c315:  - x107 + x290 >= 0
 c316:  - x10 - x11 + x107 >= -1
 c317:  - x12 + x108 <= 0
 c318:  - x10 + x108 <= 0
 c319:  - x108 + x290 >= 0
 c320:  - x10 - x12 + x108 >= -1
 c321:  - x13 + x109 <= 0
 c322:  - x10 + x109 <= 0
 c323:  - x109 + x290 >= 0
 c324:  - x10 - x13 + x109 >= -1
 c325:  - x14 + x110 <= 0
 c326:  - x10 + x110 <= 0
 c327:  - x110 + x290 >= 0
 c328:  - x10 - x14 + x110 >= -1
 c329:  - x15 + x111 <= 0
 c330:  - x10 + x111 <= 0
 c331:  - x111 + x290 >= 0
 c332:  - x10 - x15 + x111 >= -1
 c333:  - x16 + x112 <= 0
 c334:  - x10 + x112 <= 0
 c335:  - x112 + x290 >= 0
 c336:  - x10 - x16 + x112 >= -1
 c337:  - x9 + x113 <= 0
 c338:  - x11 + x113 <= 0
 c339:  - x113 + x290 >= 0
 c340:  - x9 - x11 + x113 >= -1
 c341:  - x10 + x114 <= 0
 c342:  - x11 + x114 <= 0
 c343:  - x114 + x290 >= 0
 c344:  - x10 - x11 + x114 >= -1
 c345:  - x11 + x115 <= 0
 c346:  - x11 + x115 <= 0
 c347:  - x115 + x290 >= 0
 c348:  - 2 x11 + x115 >= -1
 c349:  - x12 + x116 <= 0
 c350:  - x11 + x116 <= 0
 c351:  - x116 + x290 >= 0
 c352:  - x11 - x12 + x116 >= -1
 c353:  - x13 + x117 <= 0
 c354:  - x11 + x117 <= 0
 c355:  - x117 + x290 >= 0
 c356:  - x11 - x13 + x117 >= -1
 c357:  - x14 + x118 <= 0
 c358:  - x11 + x118 <= 0
 c359:  - x118 + x290 >= 0
 c360:  - x11 - x14 + x118 >= -1
 c361:  - x15 + x119 <= 0
 c362:  - x11 + x119 <= 0
 c363:  - x119 + x290 >= 0
 c364:  - x11 - x15 + x119 >= -1
 c365:  - x16 + x120 <= 0
 c366:  - x11 + x120 <= 0
 c367:  - x120 + x290 >= 0
 c368:  - x11 - x16 + x120 >= -1
 c369:  - x9 + x121 <= 0
 c370:  - x12 + x121 <= 0
 c371:  - x121 + x290 >= 0
 c372:  - x9 - x12 + x121 >= -1
 c373:  - x10 + x122 <= 0
 c374:  - x12 + x122 <= 0
 c375:  - x122 + x290 >= 0
 c376:  - x10 - x12 + x122 >= -1
 c377:  - x11 + x123 <= 0
 c378:  - x12 + x123 <= 0
 c379:  - x123 + x290 >= 0
 c380:  - x11 - x12 + x123 >= -1
 c381:  - x12 + x124 <= 0
 c382:  - x12 + x124 <= 0
 c383:  - x124 + x290 >= 0
 c384:  - 2 x12 + x124 >= -1
 c385:  - x13 + x125 <= 0
 c386:  - x12 + x125 <= 0
 c387:  - x125 + x290 >= 0
 c388:  - x12 - x13 + x125 >= -1
 c389:  - x14 + x126 <= 0
 c390:  - x12 + x126 <= 0
 c391:  - x126 + x290 >= 0
 c392:  - x12 - x14 + x126 >= -1
 c393:  - x15 + x127 <= 0
 c394:  - x12 + x127 <= 0
 c395:  - x127 + x290 >= 0
 c396:  - x12 - x15 + x127 >= -1
 c397:  - x16 + x128 <= 0
 c398:  - x12 + x128 <= 0
 c399:  - x128 + x290 >= 0
 c400:  - x12 - x16 + x128 >= -1
 c401:  - x9 + x129 <= 0
 c402:  - x13 + x129 <= 0
 c403:  - x129 + x290 >= 0
 c404:  - x9 - x13 + x129 >= -1
 c405:  - x10 + x130 <= 0
 c406:  - x13 + x130 <= 0
 c407:  - x130 + x290 >= 0
 c408:  - x10 - x13 + x130 >= -1
 c409:  - x11 + x131 <= 0
 c410:  - x13 + x131 <= 0
 c411:  - x131 + x290 >= 0
 c412:  - x11 - x13 + x131 >= -1
 c413:  - x12 + x132 <= 0
 c414:  - x13 + x132 <= 0
 c415:  - x132 + x290 >= 0
 c416:  - x12 - x13 + x132 >= -1
 c417:  - x13 + x133 <= 0
 c418:  - x13 + x133 <= 0
 c419:  - x133 + x290 >= 0
 c420:  - 2 x13 + x133 >= -1
 c421:  - x14 + x134 <= 0
 c422:  - x13 + x134 <= 0
 c423:  - x134 + x290 >= 0
 c424:  - x13 - x14 + x134 >= -1
 c425:  - x15 + x135 <= 0
 c426:  - x13 + x135 <= 0
 c427:  - x135 + x290 >= 0
 c428:  - x13 - x15 + x135 >= -1
 c429:  - x16 + x136 <= 0
 c430:  - x13 + x136 <= 0
 c431:  - x136 + x290 >= 0
 c432:  - x13 - x16 + x136 >= -1
 c433:  - x9 + x137 <= 0
 c434:  - x14 + x137 <= 0
 c435:  - x137 + x290 >= 0
 c436:  - x9 - x14 + x137 >= -1
 c437:  - x10 + x138 <= 0
 c438:  - x14 + x138 <= 0
 c439:  - x138 + x290 >= 0
 c440:  - x10 - x14 + x138 >= -1
 c441:  - x11 + x139 <= 0
 c442:  - x14 + x139 <= 0
 c443:  - x139 + x290 >= 0
 c444:  - x11 - x14 + x139 >= -1
 c445:  - x12 + x140 <= 0
 c446:  - x14 + x140 <= 0
 c447:  - x140 + x290 >= 0
 c448:  - x12 - x14 + x140 >= -1
 c449:  - x13 + x141 <= 0
 c450:  - x14 + x141 <= 0
 c451:  - x141 + x290 >= 0
 c452:  - x13 - x14 + x141 >= -1
 c453:  - x14 + x142 <= 0
 c454:  - x14 + x142 <= 0
 c455:  - x142 + x290 >= 0
 c456:  - 2 x14 + x142 >= -1
 c457:  - x15 + x143 <= 0
 c458:  - x14 + x143 <= 0
 c459:  - x143 + x290 >= 0
 c460:  - x14 - x15 + x143 >= -1
 c461:  - x16 + x144 <= 0
 c462:  - x14 + x144 <= 0
 c463:  - x144 + x290 >= 0
 c464:  - x14 - x16 + x144 >= -1
 c465:  - x9 + x145 <= 0
 c466:  - x15 + x145 <= 0
 c467:  - x145 + x290 >= 0
 c468:  - x9 - x15 + x145 >= -1
 c469:  - x10 + x146 <= 0
 c470:  - x15 + x146 <= 0
 c471:  - x146 + x290 >= 0
 c472:  - x10 - x15 + x146 >= -1
 c473:  - x11 + x147 <= 0
 c474:  - x15 + x147 <= 0
 c475:  - x147 + x290 >= 0
 c476:  - x11 - x15 + x147 >= -1
 c477:  - x12 + x148 <= 0
 c478:  - x15 + x148 <= 0
 c479:  - x148 + x290 >= 0
 c480:  - x12 - x15 + x148 >= -1
 c481:  - x13 + x149 <= 0
 c482:  - x15 + x149 <= 0
 c483:  - x149 + x290 >= 0
 c484:  - x13 - x15 + x149 >= -1
 c485:  - x14 + x150 <= 0
 c486:  - x15 + x150 <= 0
 c487:  - x150 + x290 >= 0
 c488:  - x14 - x15 + x150 >= -1
 c489:  - x15 + x151 <= 0
 c490:  - x15 + x151 <= 0
 c491:  - x151 + x290 >= 0
 c492:  - 2 x15 + x151 >= -1
 c493:  - x16 + x152 <= 0
 c494:  - x15 + x152 <= 0
 c495:  - x152 + x290 >= 0
 c496:  - x15 - x16 + x152 >= -1
 c497:  - x9 + x153 <= 0
 c498:  - x16 + x153 <= 0
 c499:  - x153 + x290 >= 0
 c500:  - x9 - x16 + x153 >= -1
 c501:  - x10 + x154 <= 0
 c502:  - x16 + x154 <= 0
 c503:  - x154 + x290 >= 0
 c504:  - x10 - x16 + x154 >= -1
 c505:  - x11 + x155 <= 0
 c506:  - x16 + x155 <= 0
 c507:  - x155 + x290 >= 0
 c508:  - x11 - x16 + x155 >= -1
 c509:  - x12 + x156 <= 0
 c510:  - x16 + x156 <= 0
 c511:  - x156 + x290 >= 0
 c512:  - x12 - x16 + x156 >= -1
 c513:  - x13 + x157 <= 0
 c514:  - x16 + x157 <= 0
 c515:  - x157 + x290 >= 0
 c516:  - x13 - x16 + x157 >= -1
 c517:  - x14 + x158 <= 0
 c518:  - x16 + x158 <= 0
 c519:  - x158 + x290 >= 0
 c520:  - x14 - x16 + x158 >= -1
 c521:  - x15 + x159 <= 0
 c522:  - x16 + x159 <= 0
 c523:  - x159 + x290 >= 0
 c524:  - x15 - x16 + x159 >= -1
 c525:  - x16 + x160 <= 0
 c526:  - x16 + x160 <= 0
 c527:  - x160 + x290 >= 0
 c528:  - 2 x16 + x160 >= -1
 c529:  - x17 + x161 <= 0
 c530:  - x17 + x161 <= 0
 c531:  - x161 + x291 >= 0
 c532:  - 2 x17 + x161 >= -1
 c533:  - x18 + x162 <= 0
 c534:  - x17 + x162 <= 0
 c535:  - x162 + x291 >= 0
 c536:  - x17 - x18 + x162 >= -1
 c537:  - x19 + x163 <= 0
 c538:  - x17 + x163 <= 0
 c539:  - x163 + x291 >= 0
 c540:  - x17 - x19 + x163 >= -1
 c541:  - x20 + x164 <= 0
 c542:  - x17 + x164 <= 0
 c543:  - x164 + x291 >= 0
 c544:  - x17 - x20 + x164 >= -1
 c545:  - x21 + x165 <= 0
 c546:  - x17 + x165 <= 0
 c547:  - x165 + x291 >= 0
 c548:  - x17 - x21 + x165 >= -1
 c549:  - x22 + x166 <= 0
 c550:  - x17 + x166 <= 0
 c551:  - x166 + x291 >= 0
 c552:  - x17 - x22 + x166 >= -1
 c553:  - x23 + x167 <= 0
 c554:  - x17 + x167 <= 0
 c555:  - x167 + x291 >= 0
 c556:  - x17 - x23 + x167 >= -1
 c557:  - x24 + x168 <= 0
 c558:  - x17 + x168 <= 0
 c559:  - x168 + x291 >= 0
 c560:  - x17 - x24 + x168 >= -1
 c561:  - x17 + x169 <= 0
 c562:  - x18 + x169 <= 0
 c563:  - x169 + x291 >= 0
 c564:  - x17 - x18 + x169 >= -1
 c565:  - x18 + x170 <= 0
 c566:  - x18 + x170 <= 0
 c567:  - x170 + x291 >= 0
 c568:  - 2 x18 + x170 >= -1
 c569:  - x19 + x171 <= 0
 c570:  - x18 + x171 <= 0
 c571:  - x171 + x291 >= 0
 c572:  - x18 - x19 + x171 >= -1
 c573:  - x20 + x172 <= 0
 c574:  - x18 + x172 <= 0
 c575:  - x172 + x291 >= 0
 c576:  - x18 - x20 + x172 >= -1
 c577:  - x21 + x173 <= 0
 c578:  - x18 + x173 <= 0
 c579:  - x173 + x291 >= 0
 c580:  - x18 - x21 + x173 >= -1
 c581:  - x22 + x174 <= 0
 c582:  - x18 + x174 <= 0
 c583:  - x174 + x291 >= 0
 c584:  - x18 - x22 + x174 >= -1
 c585:  - x23 + x175 <= 0
 c586:  - x18 + x175 <= 0
 c587:  - x175 + x291 >= 0
 c588:  - x18 - x23 + x175 >= -1
 c589:  - x24 + x176 <= 0
 c590:  - x18 + x176 <= 0
 c591:  - x176 + x291 >= 0
 c592:  - x18 - x24 + x176 >= -1
 c593:  - x17 + x177 <= 0
 c594:  - x19 + x177 <= 0
 c595:  - x177 + x291 >= 0
 c596:  - x17 - x19 + x177 >= -1
 c597:  - x18 + x178 <= 0
 c598:  - x19 + x178 <= 0
 c599:  - x178 + x291 >= 0
 c600:  - x18 - x19 + x178 >= -1
 c601:  - x19 + x179 <= 0
 c602:  - x19 + x179 <= 0
 c603:  - x179 + x291 >= 0
 c604:  - 2 x19 + x179 >= -1
 c605:  - x20 + x180 <= 0
 c606:  - x19 + x180 <= 0
 c607:  - x180 + x291 >= 0
 c608:  - x19 - x20 + x180 >= -1
 c609:  - x21 + x181 <= 0
 c610:  - x19 + x181 <= 0
 c611:  - x181 + x291 >= 0
 c612:  - x19 - x21 + x181 >= -1
 c613:  - x22 + x182 <= 0
 c614:  - x19 + x182 <= 0
 c615:  - x182 + x291 >= 0
 c616:  - x19 - x22 + x182 >= -1
 c617:  - x23 + x183 <= 0
 c618:  - x19 + x183 <= 0
 c619:  - x183 + x291 >= 0
 c620:  - x19 - x23 + x183 >= -1
 c621:  - x24 + x184 <= 0
 c622:  - x19 + x184 <= 0
 c623:  - x184 + x291 >= 0
 c624:  - x19 - x24 + x184 >= -1
 c625:  - x17 + x185 <= 0
 c626:  - x20 + x185 <= 0
 c627:  - x185 + x291 >= 0
 c628:  - x17 - x20 + x185 >= -1
 c629:  - x18 + x186 <= 0
 c630:  - x20 + x186 <= 0
 c631:  - x186 + x291 >= 0
 c632:  - x18 - x20 + x186 >= -1
 c633:  - x19 + x187 <= 0
 c634:  - x20 + x187 <= 0
 c635:  - x187 + x291 >= 0
 c636:  - x19 - x20 + x187 >= -1
 c637:  - x20 + x188 <= 0
 c638:  - x20 + x188 <= 0
 c639:  - x188 + x291 >= 0
 c640:  - 2 x20 + x188 >= -1
 c641:  - x21 + x189 <= 0
 c642:  - x20 + x189 <= 0
 c643:  - x189 + x291 >= 0
 c644:  - x20 - x21 + x189 >= -1
 c645:  - x22 + x190 <= 0
 c646:  - x20 + x190 <= 0
 c647:  - x190 + x291 >= 0
 c648:  - x20 - x22 + x190 >= -1
 c649:  - x23 + x191 <= 0
 c650:  - x20 + x191 <= 0
 c651:  - x191 + x291 >= 0
 c652:  - x20 - x23 + x191 >= -1
 c653:  - x24 + x192 <= 0
 c654:  - x20 + x192 <= 0
 c655:  - x192 + x291 >= 0
 c656:  - x20 - x24 + x192 >= -1
 c657:  - x17 + x193 <= 0
 c658:  - x21 + x193 <= 0
 c659:  - x193 + x291 >= 0
 c660:  - x17 - x21 + x193 >= -1
 c661:  - x18 + x194 <= 0
 c662:  - x21 + x194 <= 0
 c663:  - x194 + x291 >= 0
 c664:  - x18 - x21 + x194 >= -1
 c665:  - x19 + x195 <= 0
 c666:  - x21 + x195 <= 0
 c667:  - x195 + x291 >= 0
 c668:  - x19 - x21 + x195 >= -1
 c669:  - x20 + x196 <= 0
 c670:  - x21 + x196 <= 0
 c671:  - x196 + x291 >= 0
 c672:  - x20 - x21 + x196 >= -1
 c673:  - x21 + x197 <= 0
 c674:  - x21 + x197 <= 0
 c675:  - x197 + x291 >= 0
 c676:  - 2 x21 + x197 >= -1
 c677:  - x22 + x198 <= 0
 c678:  - x21 + x198 <= 0
 c679:  - x198 + x291 >= 0
 c680:  - x21 - x22 + x198 >= -1
 c681:  - x23 + x199 <= 0
 c682:  - x21 + x199 <= 0
 c683:  - x199 + x291 >= 0
 c684:  - x21 - x23 + x199 >= -1
 c685:  - x24 + x200 <= 0
 c686:  - x21 + x200 <= 0
 c687:  - x200 + x291 >= 0
 c688:  - x21 - x24 + x200 >= -1
 c689:  - x17 + x201 <= 0
 c690:  - x22 + x201 <= 0
 c691:  - x201 + x291 >= 0
 c692:  - x17 - x22 + x201 >= -1
 c693:  - x18 + x202 <= 0
 c694:  - x22 + x202 <= 0
 c695:  - x202 + x291 >= 0
 c696:  - x18 - x22 + x202 >= -1
 c697:  - x19 + x203 <= 0
 c698:  - x22 + x203 <= 0
 c699:  - x203 + x291 >= 0
 c700:  - x19 - x22 + x203 >= -1
 c701:  - x20 + x204 <= 0
 c702:  - x22 + x204 <= 0
 c703:  - x204 + x291 >= 0
 c704:  - x20 - x22 + x204 >= -1
 c705:  - x21 + x205 <= 0
 c706:  - x22 + x205 <= 0
 c707:  - x205 + x291 >= 0
 c708:  - x21 - x22 + x205 >= -1
 c709:  - x22 + x206 <= 0
 c710:  - x22 + x206 <= 0
 c711:  - x206 + x291 >= 0
 c712:  - 2 x22 + x206 >= -1
 c713:  - x23 + x207 <= 0
 c714:  - x22 + x207 <= 0
 c715:  - x207 + x291 >= 0
 c716:  - x22 - x23 + x207 >= -1
 c717:  - x24 + x208 <= 0
 c718:  - x22 + x208 <= 0
 c719:  - x208 + x291 >= 0
 c720:  - x22 - x24 + x208 >= -1
 c721:  - x17 + x209 <= 0
 c722:  - x23 + x209 <= 0
 c723:  - x209 + x291 >= 0
 c724:  - x17 - x23 + x209 >= -1
 c725:  - x18 + x210 <= 0
 c726:  - x23 + x210 <= 0
 c727:  - x210 + x291 >= 0
 c728:  - x18 - x23 + x210 >= -1
 c729:  - x19 + x211 <= 0
 c730:  - x23 + x211 <= 0
 c731:  - x211 + x291 >= 0
 c732:  - x19 - x23 + x211 >= -1
 c733:  - x20 + x212 <= 0
 c734:  - x23 + x212 <= 0
 c735:  - x212 + x291 >= 0
 c736:  - x20 - x23 + x212 >= -1
 c737:  - x21 + x213 <= 0
 c738:  - x23 + x213 <= 0
 c739:  - x213 + x291 >= 0
 c740:  - x21 - x23 + x213 >= -1
 c741:  - x22 + x214 <= 0
 c742:  - x23 + x214 <= 0
 c743:  - x214 + x291 >= 0
 c744:  - x22 - x23 + x214 >= -1
 c745:  - x23 + x215 <= 0
 c746:  - x23 + x215 <= 0
 c747:  - x215 + x291 >= 0
 c748:  - 2 x23 + x215 >= -1
 c749:  - x24 + x216 <= 0
 c750:  - x23 + x216 <= 0
 c751:  - x216 + x291 >= 0
 c752:  - x23 - x24 + x216 >= -1
 c753:  - x17 + x217 <= 0
 c754:  - x24 + x217 <= 0
 c755:  - x217 + x291 >= 0
 c756:  - x17 - x24 + x217 >= -1
 c757:  - x18 + x218 <= 0
 c758:  - x24 + x218 <= 0
 c759:  - x218 + x291 >= 0
 c760:  - x18 - x24 + x218 >= -1
 c761:  - x19 + x219 <= 0
 c762:  - x24 + x219 <= 0
 c763:  - x219 + x291 >= 0
 c764:  - x19 - x24 + x219 >= -1
 c765:  - x20 + x220 <= 0
 c766:  - x24 + x220 <= 0
 c767:  - x220 + x291 >= 0
 c768:  - x20 - x24 + x220 >= -1
 c769:  - x21 + x221 <= 0
 c770:  - x24 + x221 <= 0
 c771:  - x221 + x291 >= 0
 c772:  - x21 - x24 + x221 >= -1
 c773:  - x22 + x222 <= 0
 c774:  - x24 + x222 <= 0
 c775:  - x222 + x291 >= 0
 c776:  - x22 - x24 + x222 >= -1
 c777:  - x23 + x223 <= 0
 c778:  - x24 + x223 <= 0
 c779:  - x223 + x291 >= 0
 c780:  - x23 - x24 + x223 >= -1
 c781:  - x24 + x224 <= 0
 c782:  - x24 + x224 <= 0
 c783:  - x224 + x291 >= 0
 c784:  - 2 x24 + x224 >= -1
 c785:  - x25 + x225 <= 0
 c786:  - x25 + x225 <= 0
 c787:  - x225 + x292 >= 0
 c788:  - 2 x25 + x225 >= -1
 c789:  - x26 + x226 <= 0
 c790:  - x25 + x226 <= 0
 c791:  - x226 + x292 >= 0
 c792:  - x25 - x26 + x226 >= -1
 c793:  - x27 + x227 <= 0
 c794:  - x25 + x227 <= 0
 c795:  - x227 + x292 >= 0
 c796:  - x25 - x27 + x227 >= -1
 c797:  - x28 + x228 <= 0
 c798:  - x25 + x228 <= 0
 c799:  - x228 + x292 >= 0
 c800:  - x25 - x28 + x228 >= -1
 c801:  - x29 + x229 <= 0
 c802:  - x25 + x229 <= 0
 c803:  - x229 + x292 >= 0
 c804:  - x25 - x29 + x229 >= -1
 c805:  - x30 + x230 <= 0
 c806:  - x25 + x230 <= 0
 c807:  - x230 + x292 >= 0
 c808:  - x25 - x30 + x230 >= -1
 c809:  - x31 + x231 <= 0
 c810:  - x25 + x231 <= 0
 c811:  - x231 + x292 >= 0
 c812:  - x25 - x31 + x231 >= -1
 c813:  - x32 + x232 <= 0
 c814:  - x25 + x232 <= 0
 c815:  - x232 + x292 >= 0
 c816:  - x25 - x32 + x232 >= -1
 c817:  - x25 + x233 <= 0
 c818:  - x26 + x233 <= 0
 c819:  - x233 + x292 >= 0
 c820:  - x25 - x26 + x233 >= -1
 c821:  - x26 + x234 <= 0
 c822:  - x26 + x234 <= 0
 c823:  - x234 + x292 >= 0
 c824:  - 2 x26 + x234 >= -1
 c825:  - x27 + x235 <= 0
 c826:  - x26 + x235 <= 0
 c827:  - x235 + x292 >= 0
 c828:  - x26 - x27 + x235 >= -1
 c829:  - x28 + x236 <= 0
 c830:  - x26 + x236 <= 0
 c831:  - x236 + x292 >= 0
 c832:  - x26 - x28 + x236 >= -1
 c833:  - x29 + x237 <= 0
 c834:  - x26 + x237 <= 0
 c835:  - x237 + x292 >= 0
 c836:  - x26 - x29 + x237 >= -1
 c837:  - x30 + x238 <= 0
 c838:  - x26 + x238 <= 0
 c839:  - x238 + x292 >= 0
 c840:  - x26 - x30 + x238 >= -1
 c841:  - x31 + x239 <= 0
 c842:  - x26 + x239 <= 0
 c843:  - x239 + x292 >= 0
 c844:  - x26 - x31 + x239 >= -1
 c845:  - x32 + x240 <= 0
 c846:  - x26 + x240 <= 0
 c847:  - x240 + x292 >= 0
 c848:  - x26 - x32 + x240 >= -1
 c849:  - x25 + x241 <= 0
 c850:  - x27 + x241 <= 0
 c851:  - x241 + x292 >= 0
 c852:  - x25 - x27 + x241 >= -1
 c853:  - x26 + x242 <= 0
 c854:  - x27 + x242 <= 0
 c855:  - x242 + x292 >= 0
 c856:  - x26 - x27 + x242 >= -1
 c857:  - x27 + x243 <= 0
 c858:  - x27 + x243 <= 0
 c859:  - x243 + x292 >= 0
 c860:  - 2 x27 + x243 >= -1
 c861:  - x28 + x244 <= 0
 c862:  - x27 + x244 <= 0
 c863:  - x244 + x292 >= 0
 c864:  - x27 - x28 + x244 >= -1
 c865:  - x29 + x245 <= 0
 c866:  - x27 + x245 <= 0
 c867:  - x245 + x292 >= 0
 c868:  - x27 - x29 + x245 >= -1
 c869:  - x30 + x246 <= 0
 c870:  - x27 + x246 <= 0
 c871:  - x246 + x292 >= 0
 c872:  - x27 - x30 + x246 >= -1
 c873:  - x31 + x247 <= 0
 c874:  - x27 + x247 <= 0
 c875:  - x247 + x292 >= 0
 c876:  - x27 - x31 + x247 >= -1
 c877:  - x32 + x248 <= 0
 c878:  - x27 + x248 <= 0
 c879:  - x248 + x292 >= 0
 c880:  - x27 - x32 + x248 >= -1
 c881:  - x25 + x249 <= 0
 c882:  - x28 + x249 <= 0
 c883:  - x249 + x292 >= 0
 c884:  - x25 - x28 + x249 >= -1
 c885:  - x26 + x250 <= 0
 c886:  - x28 + x250 <= 0
 c887:  - x250 + x292 >= 0
 c888:  - x26 - x28 + x250 >= -1
 c889:  - x27 + x251 <= 0
 c890:  - x28 + x251 <= 0
 c891:  - x251 + x292 >= 0
 c892:  - x27 - x28 + x251 >= -1
 c893:  - x28 + x252 <= 0
 c894:  - x28 + x252 <= 0
 c895:  - x252 + x292 >= 0
 c896:  - 2 x28 + x252 >= -1
 c897:  - x29 + x253 <= 0
 c898:  - x28 + x253 <= 0
 c899:  - x253 + x292 >= 0
 c900:  - x28 - x29 + x253 >= -1
 c901:  - x30 + x254 <= 0
 c902:  - x28 + x254 <= 0
 c903:  - x254 + x292 >= 0
 c904:  - x28 - x30 + x254 >= -1
 c905:  - x31 + x255 <= 0
 c906:  - x28 + x255 <= 0
 c907:  - x255 + x292 >= 0
 c908:  - x28 - x31 + x255 >= -1
 c909:  - x32 + x256 <= 0
 c910:  - x28 + x256 <= 0
 c911:  - x256 + x292 >= 0
 c912:  - x28 - x32 + x256 >= -1
 c913:  - x25 + x257 <= 0
 c914:  - x29 + x257 <= 0
 c915:  - x257 + x292 >= 0
 c916:  - x25 - x29 + x257 >= -1
 c917:  - x26 + x258 <= 0
 c918:  - x29 + x258 <= 0
 c919:  - x258 + x292 >= 0
 c920:  - x26 - x29 + x258 >= -1
 c921:  - x27 + x259 <= 0
 c922:  - x29 + x259 <= 0
 c923:  - x259 + x292 >= 0
 c924:  - x27 - x29 + x259 >= -1
 c925:  - x28 + x260 <= 0
 c926:  - x29 + x260 <= 0
 c927:  - x260 + x292 >= 0
 c928:  - x28 - x29 + x260 >= -1
 c929:  - x29 + x261 <= 0
 c930:  - x29 + x261 <= 0
 c931:  - x261 + x292 >= 0
 c932:  - 2 x29 + x261 >= -1
 c933:  - x30 + x262 <= 0
 c934:  - x29 + x262 <= 0
 c935:  - x262 + x292 >= 0
 c936:  - x29 - x30 + x262 >= -1
 c937:  - x31 + x263 <= 0
 c938:  - x29 + x263 <= 0
 c939:  - x263 + x292 >= 0
 c940:  - x29 - x31 + x263 >= -1
 c941:  - x32 + x264 <= 0
 c942:  - x29 + x264 <= 0
 c943:  - x264 + x292 >= 0
 c944:  - x29 - x32 + x264 >= -1
 c945:  - x25 + x265 <= 0
 c946:  - x30 + x265 <= 0
 c947:  - x265 + x292 >= 0
 c948:  - x25 - x30 + x265 >= -1
 c949:  - x26 + x266 <= 0
 c950:  - x30 + x266 <= 0
 c951:  - x266 + x292 >= 0
 c952:  - x26 - x30 + x266 >= -1
 c953:  - x27 + x267 <= 0
 c954:  - x30 + x267 <= 0
 c955:  - x267 + x292 >= 0
 c956:  - x27 - x30 + x267 >= -1
 c957:  - x28 + x268 <= 0
 c958:  - x30 + x268 <= 0
 c959:  - x268 + x292 >= 0
 c960:  - x28 - x30 + x268 >= -1
 c961:  - x29 + x269 <= 0
 c962:  - x30 + x269 <= 0
 c963:  - x269 + x292 >= 0
 c964:  - x29 - x30 + x269 >= -1
 c965:  - x30 + x270 <= 0
 c966:  - x30 + x270 <= 0
 c967:  - x270 + x292 >= 0
 c968:  - 2 x30 + x270 >= -1
 c969:  - x31 + x271 <= 0
 c970:  - x30 + x271 <= 0
 c971:  - x271 + x292 >= 0
 c972:  - x30 - x31 + x271 >= -1
 c973:  - x32 + x272 <= 0
 c974:  - x30 + x272 <= 0
 c975:  - x272 + x292 >= 0
 c976:  - x30 - x32 + x272 >= -1
 c977:  - x25 + x273 <= 0
 c978:  - x31 + x273 <= 0
 c979:  - x273 + x292 >= 0
 c980:  - x25 - x31 + x273 >= -1
 c981:  - x26 + x274 <= 0
 c982:  - x31 + x274 <= 0
 c983:  - x274 + x292 >= 0
 c984:  - x26 - x31 + x274 >= -1
 c985:  - x27 + x275 <= 0
 c986:  - x31 + x275 <= 0
 c987:  - x275 + x292 >= 0
 c988:  - x27 - x31 + x275 >= -1
 c989:  - x28 + x276 <= 0
 c990:  - x31 + x276 <= 0
 c991:  - x276 + x292 >= 0
 c992:  - x28 - x31 + x276 >= -1
 c993:  - x29 + x277 <= 0
 c994:  - x31 + x277 <= 0
 c995:  - x277 + x292 >= 0
 c996:  - x29 - x31 + x277 >= -1
 c997:  - x30 + x278 <= 0
 c998:  - x31 + x278 <= 0
 c999:  - x278 + x292 >= 0
 c1000: - x30 - x31 + x278 >= -1
 c1001: - x31 + x279 <= 0
 c1002: - x31 + x279 <= 0
 c1003: - x279 + x292 >= 0
 c1004: - 2 x31 + x279 >= -1
 c1005: - x32 + x280 <= 0
 c1006: - x31 + x280 <= 0
 c1007: - x280 + x292 >= 0
 c1008: - x31 - x32 + x280 >= -1
 c1009: - x25 + x281 <= 0
 c1010: - x32 + x281 <= 0
 c1011: - x281 + x292 >= 0
 c1012: - x25 - x32 + x281 >= -1
 c1013: - x26 + x282 <= 0
 c1014: - x32 + x282 <= 0
 c1015: - x282 + x292 >= 0
 c1016: - x26 - x32 + x282 >= -1
 c1017: - x27 + x283 <= 0
 c1018: - x32 + x283 <= 0
 c1019: - x283 + x292 >= 0
 c1020: - x27 - x32 + x283 >= -1
 c1021: - x28 + x284 <= 0
 c1022: - x32 + x284 <= 0
 c1023: - x284 + x292 >= 0
 c1024: - x28 - x32 + x284 >= -1
 c1025: - x29 + x285 <= 0
 c1026: - x32 + x285 <= 0
 c1027: - x285 + x292 >= 0
 c1028: - x29 - x32 + x285 >= -1
 c1029: - x30 + x286 <= 0
 c1030: - x32 + x286 <= 0
 c1031: - x286 + x292 >= 0
 c1032: - x30 - x32 + x286 >= -1
 c1033: - x31 + x287 <= 0
 c1034: - x32 + x287 <= 0
 c1035: - x287 + x292 >= 0
 c1036: - x31 - x32 + x287 >= -1
 c1037: - x32 + x288 <= 0
 c1038: - x32 + x288 <= 0
 c1039: - x288 + x292 >= 0
 c1040: - 2 x32 + x288 >= -1
 c1041: x289 + x290 + x291 + x292 >= 1
Bounds
 0 <= x1 <= 1
 0 <= x2 <= 1
 0 <= x3 <= 1
 0 <= x4 <= 1
 0 <= x5 <= 1
 0 <= x6 <= 1
 0 <= x7 <= 1
 0 <= x8 <= 1
 0 <= x9 <= 1
 0 <= x10 <= 1
 0 <= x11 <= 1
 0 <= x12 <= 1
 0 <= x13 <= 1
 0 <= x14 <= 1
 0 <= x15 <= 1
 0 <= x16 <= 1
 0 <= x17 <= 1
 0 <= x18 <= 1
 0 <= x19 <= 1
 0 <= x20 <= 1
 0 <= x21 <= 1
 0 <= x22 <= 1
 0 <= x23 <= 1
 0 <= x24 <= 1
 0 <= x25 <= 1
 0 <= x26 <= 1
 0 <= x27 <= 1
 0 <= x28 <= 1
 0 <= x29 <= 1
 0 <= x30 <= 1
 0 <= x31 <= 1
 0 <= x32 <= 1
 0 <= x33 <= 1
 0 <= x34 <= 1
 0 <= x35 <= 1
 0 <= x36 <= 1
 0 <= x37 <= 1
 0 <= x38 <= 1
 0 <= x39 <= 1
 0 <= x40 <= 1
 0 <= x41 <= 1
 0 <= x42 <= 1
 0 <= x43 <= 1
 0 <= x44 <= 1
 0 <= x45 <= 1
 0 <= x46 <= 1
 0 <= x47 <= 1
 0 <= x48 <= 1
 0 <= x49 <= 1
 0 <= x50 <= 1
 0 <= x51 <= 1
 0 <= x52 <= 1
 0 <= x53 <= 1
 0 <= x54 <= 1
 0 <= x55 <= 1
 0 <= x56 <= 1
 0 <= x57 <= 1
 0 <= x58 <= 1
 0 <= x59 <= 1
 0 <= x60 <= 1
 0 <= x61 <= 1
 0 <= x62 <= 1
 0 <= x63 <= 1
 0 <= x64 <= 1
 0 <= x65 <= 1
 0 <= x66 <= 1
 0 <= x67 <= 1
 0 <= x68 <= 1
 0 <= x69 <= 1
 0 <= x70 <= 1
 0 <= x71 <= 1
 0 <= x72 <= 1
 0 <= x73 <= 1
 0 <= x74 <= 1
 0 <= x75 <= 1
 0 <= x76 <= 1
 0 <= x77 <= 1
 0 <= x78 <= 1
 0 <= x79 <= 1
 0 <= x80 <= 1
 0 <= x81 <= 1
 0 <= x82 <= 1
 0 <= x83 <= 1
 0 <= x84 <= 1
 0 <= x85 <= 1
 0 <= x86 <= 1
 0 <= x87 <= 1
 0 <= x88 <= 1
 0 <= x89 <= 1
 0 <= x90 <= 1
 0 <= x91 <= 1
 0 <= x92 <= 1
 0 <= x93 <= 1
 0 <= x94 <= 1
 0 <= x95 <= 1
 0 <= x96 <= 1
 0 <= x97 <= 1
 0 <= x98 <= 1
 0 <= x99 <= 1
 0 <= x100 <= 1
 0 <= x101 <= 1
 0 <= x102 <= 1
 0 <= x103 <= 1
 0 <= x104 <= 1
 0 <= x105 <= 1
 0 <= x106 <= 1
 0 <= x107 <= 1
 0 <= x108 <= 1
 0 <= x109 <= 1
 0 <= x110 <= 1
 0 <= x111 <= 1
 0 <= x112 <= 1
 0 <= x113 <= 1
 0 <= x114 <= 1
 0 <= x115 <= 1
 0 <= x116 <= 1
 0 <= x117 <= 1
 0 <= x118 <= 1
 0 <= x119 <= 1
 0 <= x120 <= 1
 0 <= x121 <= 1
 0 <= x122 <= 1
 0 <= x123 <= 1
 0 <= x124 <= 1
 0 <= x125 <= 1
 0 <= x126 <= 1
 0 <= x127 <= 1
 0 <= x128 <= 1
 0 <= x129 <= 1
 0 <= x130 <= 1
 0 <= x131 <= 1
 0 <= x132 <= 1
 0 <= x133 <= 1
 0 <= x134 <= 1
 0 <= x135 <= 1
 0 <= x136 <= 1
 0 <= x137 <= 1
 0 <= x138 <= 1
 0 <= x139 <= 1
 0 <= x140 <= 1
 0 <= x141 <= 1
 0 <= x142 <= 1
 0 <= x143 <= 1
 0 <= x144 <= 1
 0 <= x145 <= 1
 0 <= x146 <= 1
 0 <= x147 <= 1
 0 <= x148 <= 1
 0 <= x149 <= 1
 0 <= x150 <= 1
 0 <= x151 <= 1
 0 <= x152 <= 1
 0 <= x153 <= 1
 0 <= x154 <= 1
 0 <= x155 <= 1
 0 <= x156 <= 1
 0 <= x157 <= 1
 0 <= x158 <= 1
 0 <= x159 <= 1
 0 <= x160 <= 1
 0 <= x161 <= 1
 0 <= x162 <= 1
 0 <= x163 <= 1
 0 <= x164 <= 1
 0 <= x165 <= 1
 0 <= x166 <= 1
 0 <= x167 <= 1
 0 <= x168 <= 1
 0 <= x169 <= 1
 0 <= x170 <= 1
 0 <= x171 <= 1
 0 <= x172 <= 1
 0 <= x173 <= 1
 0 <= x174 <= 1
 0 <= x175 <= 1
 0 <= x176 <= 1
 0 <= x177 <= 1
 0 <= x178 <= 1
 0 <= x179 <= 1
 0 <= x180 <= 1
 0 <= x181 <= 1
 0 <= x182 <= 1
 0 <= x183 <= 1
 0 <= x184 <= 1
 0 <= x185 <= 1
 0 <= x186 <= 1
 0 <= x187 <= 1
 0 <= x188 <= 1
 0 <= x189 <= 1
 0 <= x190 <= 1
 0 <= x191 <= 1
 0 <= x192 <= 1
 0 <= x193 <= 1
 0 <= x194 <= 1
 0 <= x195 <= 1
 0 <= x196 <= 1
 0 <= x197 <= 1
 0 <= x198 <= 1
 0 <= x199 <= 1
 0 <= x200 <= 1
 0 <= x201 <= 1
 0 <= x202 <= 1
 0 <= x203 <= 1
 0 <= x204 <= 1
 0 <= x205 <= 1
 0 <= x206 <= 1
 0 <= x207 <= 1
 0 <= x208 <= 1
 0 <= x209 <= 1
 0 <= x210 <= 1
 0 <= x211 <= 1
 0 <= x212 <= 1
 0 <= x213 <= 1
 0 <= x214 <= 1
 0 <= x215 <= 1
 0 <= x216 <= 1
 0 <= x217 <= 1
 0 <= x218 <= 1
 0 <= x219 <= 1
 0 <= x220 <= 1
 0 <= x221 <= 1
 0 <= x222 <= 1
 0 <= x223 <= 1
 0 <= x224 <= 1
 0 <= x225 <= 1
 0 <= x226 <= 1
 0 <= x227 <= 1
 0 <= x228 <= 1
 0 <= x229 <= 1
 0 <= x230 <= 1
 0 <= x231 <= 1
 0 <= x232 <= 1
 0 <= x233 <= 1
 0 <= x234 <= 1
 0 <= x235 <= 1
 0 <= x236 <= 1
 0 <= x237 <= 1
 0 <= x238 <= 1
 0 <= x239 <= 1
 0 <= x240 <= 1
 0 <= x241 <= 1
 0 <= x242 <= 1
 0 <= x243 <= 1
 0 <= x244 <= 1
 0 <= x245 <= 1
 0 <= x246 <= 1
 0 <= x247 <= 1
 0 <= x248 <= 1
 0 <= x249 <= 1
 0 <= x250 <= 1
 0 <= x251 <= 1
 0 <= x252 <= 1
 0 <= x253 <= 1
 0 <= x254 <= 1
 0 <= x255 <= 1
 0 <= x256 <= 1
 0 <= x257 <= 1
 0 <= x258 <= 1
 0 <= x259 <= 1
 0 <= x260 <= 1
 0 <= x261 <= 1
 0 <= x262 <= 1
 0 <= x263 <= 1
 0 <= x264 <= 1
 0 <= x265 <= 1
 0 <= x266 <= 1
 0 <= x267 <= 1
 0 <= x268 <= 1
 0 <= x269 <= 1
 0 <= x270 <= 1
 0 <= x271 <= 1
 0 <= x272 <= 1
 0 <= x273 <= 1
 0 <= x274 <= 1
 0 <= x275 <= 1
 0 <= x276 <= 1
 0 <= x277 <= 1
 0 <= x278 <= 1
 0 <= x279 <= 1
 0 <= x280 <= 1
 0 <= x281 <= 1
 0 <= x282 <= 1
 0 <= x283 <= 1
 0 <= x284 <= 1
 0 <= x285 <= 1
 0 <= x286 <= 1
 0 <= x287 <= 1
 0 <= x288 <= 1
 0 <= x289 <= 1
 0 <= x290 <= 1
 0 <= x291 <= 1
 0 <= x292 <= 1
Binaries
 x1  x2  x3  x4  x5  x6  x7  x8  x9  x10  x11  x12  x13  x14  x15  x16  x17 
 x18  x19  x20  x21  x22  x23  x24  x25  x26  x27  x28  x29  x30  x31  x32 
 x33  x34  x35  x36  x37  x38  x39  x40  x41  x42  x43  x44  x45  x46  x47 
 x48  x49  x50  x51  x52  x53  x54  x55  x56  x57  x58  x59  x60  x61  x62 
 x63  x64  x65  x66  x67  x68  x69  x70  x71  x72  x73  x74  x75  x76  x77 
 x78  x79  x80  x81  x82  x83  x84  x85  x86  x87  x88  x89  x90  x91  x92 
 x93  x94  x95  x96  x97  x98  x99  x100  x101  x102  x103  x104  x105  x106 
 x107  x108  x109  x110  x111  x112  x113  x114  x115  x116  x117  x118  x119 
 x120  x121  x122  x123  x124  x125  x126  x127  x128  x129  x130  x131  x132 
 x133  x134  x135  x136  x137  x138  x139  x140  x141  x142  x143  x144  x145 
 x146  x147  x148  x149  x150  x151  x152  x153  x154  x155  x156  x157  x158 
 x159  x160  x161  x162  x163  x164  x165  x166  x167  x168  x169  x170  x171 
 x172  x173  x174  x175  x176  x177  x178  x179  x180  x181  x182  x183  x184 
 x185  x186  x187  x188  x189  x190  x191  x192  x193  x194  x195  x196  x197 
 x198  x199  x200  x201  x202  x203  x204  x205  x206  x207  x208  x209  x210 
 x211  x212  x213  x214  x215  x216  x217  x218  x219  x220  x221  x222  x223 
 x224  x225  x226  x227  x228  x229  x230  x231  x232  x233  x234  x235  x236 
 x237  x238  x239  x240  x241  x242  x243  x244  x245  x246  x247  x248  x249 
 x250  x251  x252  x253  x254  x255  x256  x257  x258  x259  x260  x261  x262 
 x263  x264  x265  x266  x267  x268  x269  x270  x271  x272  x273  x274  x275 
 x276  x277  x278  x279  x280  x281  x282  x283  x284  x285  x286  x287  x288 
 x289  x290  x291  x292 
End
